exp/resources/lkh/solver.tsp
NAME : solver 
TYPE : TSP 
DIMENSION : 7 
EDGE_WEIGHT_TYPE : EXPLICIT 
EDGE_WEIGHT_FORMAT: FULL_MATRIX 
EDGE_WEIGHT_SECTION 
0 0 0 0 0 0 0 
0 0 4 2 2 3 1 
0 4 0 2 2 1 3 
0 2 2 0 2 3 3 
0 2 2 2 0 3 3 
0 3 1 3 3 0 2 
0 1 3 3 3 2 0 
