exp/resources/lkh/solver.tour
NAME : solver.8.tour
COMMENT : Length = 8
COMMENT : Found by LKH [Keld Helsgaun] Wed Apr 29 17:25:55 2015
TYPE : TOUR
DIMENSION : 7
TOUR_SECTION
1
2
7
6
3
4
5
-1
EOF
